instances/p2/p2_10_3-4.txt
{
	"num_strings": 10,
	"alphabet": "ACGT",
	"strings": [
		"T",
		"",
		"A",
		"T",
		"TGC",
		"A",
		"",
		"TTT",
		"TAA",
		"TC"
	],
	"str_length":[1,0,1,1,3,1,0,3,3,2]
}